20
20
484
479
397
393
390
360
344
332
303
273
271
220
202
163
153
123
117
115
107
61
365	762
437	583
625	744
574	453
661	431
300	169
867	463
937	485
909	242
896	58
100	658
145	827
141	513
495	934
334	524
747	858
63	68
864	842
649	533
485	174
